c graph colorability of graph:
c random_regular_graph(5, 98).
c
c Generated with `cnfgen`
c (C) 2012-2016 Massimo Lauria <lauria.massimo@gmail.com>
c https://massimolauria.github.io/cnfgen
c
p cnf 294 1127
1 2 3 0
-1 -2 0
-1 -3 0
-2 -3 0
4 5 6 0
-4 -5 0
-4 -6 0
-5 -6 0
7 8 9 0
-7 -8 0
-7 -9 0
-8 -9 0
10 11 12 0
-10 -11 0
-10 -12 0
-11 -12 0
13 14 15 0
-13 -14 0
-13 -15 0
-14 -15 0
16 17 18 0
-16 -17 0
-16 -18 0
-17 -18 0
19 20 21 0
-19 -20 0
-19 -21 0
-20 -21 0
22 23 24 0
-22 -23 0
-22 -24 0
-23 -24 0
25 26 27 0
-25 -26 0
-25 -27 0
-26 -27 0
28 29 30 0
-28 -29 0
-28 -30 0
-29 -30 0
31 32 33 0
-31 -32 0
-31 -33 0
-32 -33 0
34 35 36 0
-34 -35 0
-34 -36 0
-35 -36 0
37 38 39 0
-37 -38 0
-37 -39 0
-38 -39 0
40 41 42 0
-40 -41 0
-40 -42 0
-41 -42 0
43 44 45 0
-43 -44 0
-43 -45 0
-44 -45 0
46 47 48 0
-46 -47 0
-46 -48 0
-47 -48 0
49 50 51 0
-49 -50 0
-49 -51 0
-50 -51 0
52 53 54 0
-52 -53 0
-52 -54 0
-53 -54 0
55 56 57 0
-55 -56 0
-55 -57 0
-56 -57 0
58 59 60 0
-58 -59 0
-58 -60 0
-59 -60 0
61 62 63 0
-61 -62 0
-61 -63 0
-62 -63 0
64 65 66 0
-64 -65 0
-64 -66 0
-65 -66 0
67 68 69 0
-67 -68 0
-67 -69 0
-68 -69 0
70 71 72 0
-70 -71 0
-70 -72 0
-71 -72 0
73 74 75 0
-73 -74 0
-73 -75 0
-74 -75 0
76 77 78 0
-76 -77 0
-76 -78 0
-77 -78 0
79 80 81 0
-79 -80 0
-79 -81 0
-80 -81 0
82 83 84 0
-82 -83 0
-82 -84 0
-83 -84 0
85 86 87 0
-85 -86 0
-85 -87 0
-86 -87 0
88 89 90 0
-88 -89 0
-88 -90 0
-89 -90 0
91 92 93 0
-91 -92 0
-91 -93 0
-92 -93 0
94 95 96 0
-94 -95 0
-94 -96 0
-95 -96 0
97 98 99 0
-97 -98 0
-97 -99 0
-98 -99 0
100 101 102 0
-100 -101 0
-100 -102 0
-101 -102 0
103 104 105 0
-103 -104 0
-103 -105 0
-104 -105 0
106 107 108 0
-106 -107 0
-106 -108 0
-107 -108 0
109 110 111 0
-109 -110 0
-109 -111 0
-110 -111 0
112 113 114 0
-112 -113 0
-112 -114 0
-113 -114 0
115 116 117 0
-115 -116 0
-115 -117 0
-116 -117 0
118 119 120 0
-118 -119 0
-118 -120 0
-119 -120 0
121 122 123 0
-121 -122 0
-121 -123 0
-122 -123 0
124 125 126 0
-124 -125 0
-124 -126 0
-125 -126 0
127 128 129 0
-127 -128 0
-127 -129 0
-128 -129 0
130 131 132 0
-130 -131 0
-130 -132 0
-131 -132 0
133 134 135 0
-133 -134 0
-133 -135 0
-134 -135 0
136 137 138 0
-136 -137 0
-136 -138 0
-137 -138 0
139 140 141 0
-139 -140 0
-139 -141 0
-140 -141 0
142 143 144 0
-142 -143 0
-142 -144 0
-143 -144 0
145 146 147 0
-145 -146 0
-145 -147 0
-146 -147 0
148 149 150 0
-148 -149 0
-148 -150 0
-149 -150 0
151 152 153 0
-151 -152 0
-151 -153 0
-152 -153 0
154 155 156 0
-154 -155 0
-154 -156 0
-155 -156 0
157 158 159 0
-157 -158 0
-157 -159 0
-158 -159 0
160 161 162 0
-160 -161 0
-160 -162 0
-161 -162 0
163 164 165 0
-163 -164 0
-163 -165 0
-164 -165 0
166 167 168 0
-166 -167 0
-166 -168 0
-167 -168 0
169 170 171 0
-169 -170 0
-169 -171 0
-170 -171 0
172 173 174 0
-172 -173 0
-172 -174 0
-173 -174 0
175 176 177 0
-175 -176 0
-175 -177 0
-176 -177 0
178 179 180 0
-178 -179 0
-178 -180 0
-179 -180 0
181 182 183 0
-181 -182 0
-181 -183 0
-182 -183 0
184 185 186 0
-184 -185 0
-184 -186 0
-185 -186 0
187 188 189 0
-187 -188 0
-187 -189 0
-188 -189 0
190 191 192 0
-190 -191 0
-190 -192 0
-191 -192 0
193 194 195 0
-193 -194 0
-193 -195 0
-194 -195 0
196 197 198 0
-196 -197 0
-196 -198 0
-197 -198 0
199 200 201 0
-199 -200 0
-199 -201 0
-200 -201 0
202 203 204 0
-202 -203 0
-202 -204 0
-203 -204 0
205 206 207 0
-205 -206 0
-205 -207 0
-206 -207 0
208 209 210 0
-208 -209 0
-208 -210 0
-209 -210 0
211 212 213 0
-211 -212 0
-211 -213 0
-212 -213 0
214 215 216 0
-214 -215 0
-214 -216 0
-215 -216 0
217 218 219 0
-217 -218 0
-217 -219 0
-218 -219 0
220 221 222 0
-220 -221 0
-220 -222 0
-221 -222 0
223 224 225 0
-223 -224 0
-223 -225 0
-224 -225 0
226 227 228 0
-226 -227 0
-226 -228 0
-227 -228 0
229 230 231 0
-229 -230 0
-229 -231 0
-230 -231 0
232 233 234 0
-232 -233 0
-232 -234 0
-233 -234 0
235 236 237 0
-235 -236 0
-235 -237 0
-236 -237 0
238 239 240 0
-238 -239 0
-238 -240 0
-239 -240 0
241 242 243 0
-241 -242 0
-241 -243 0
-242 -243 0
244 245 246 0
-244 -245 0
-244 -246 0
-245 -246 0
247 248 249 0
-247 -248 0
-247 -249 0
-248 -249 0
250 251 252 0
-250 -251 0
-250 -252 0
-251 -252 0
253 254 255 0
-253 -254 0
-253 -255 0
-254 -255 0
256 257 258 0
-256 -257 0
-256 -258 0
-257 -258 0
259 260 261 0
-259 -260 0
-259 -261 0
-260 -261 0
262 263 264 0
-262 -263 0
-262 -264 0
-263 -264 0
265 266 267 0
-265 -266 0
-265 -267 0
-266 -267 0
268 269 270 0
-268 -269 0
-268 -270 0
-269 -270 0
271 272 273 0
-271 -272 0
-271 -273 0
-272 -273 0
274 275 276 0
-274 -275 0
-274 -276 0
-275 -276 0
277 278 279 0
-277 -278 0
-277 -279 0
-278 -279 0
280 281 282 0
-280 -281 0
-280 -282 0
-281 -282 0
283 284 285 0
-283 -284 0
-283 -285 0
-284 -285 0
286 287 288 0
-286 -287 0
-286 -288 0
-287 -288 0
289 290 291 0
-289 -290 0
-289 -291 0
-290 -291 0
292 293 294 0
-292 -293 0
-292 -294 0
-293 -294 0
-1 -40 0
-2 -41 0
-3 -42 0
-1 -46 0
-2 -47 0
-3 -48 0
-1 -130 0
-2 -131 0
-3 -132 0
-1 -145 0
-2 -146 0
-3 -147 0
-1 -190 0
-2 -191 0
-3 -192 0
-4 -10 0
-5 -11 0
-6 -12 0
-4 -91 0
-5 -92 0
-6 -93 0
-4 -232 0
-5 -233 0
-6 -234 0
-4 -244 0
-5 -245 0
-6 -246 0
-4 -253 0
-5 -254 0
-6 -255 0
-7 -10 0
-8 -11 0
-9 -12 0
-7 -19 0
-8 -20 0
-9 -21 0
-7 -46 0
-8 -47 0
-9 -48 0
-7 -133 0
-8 -134 0
-9 -135 0
-7 -163 0
-8 -164 0
-9 -165 0
-10 -223 0
-11 -224 0
-12 -225 0
-10 -286 0
-11 -287 0
-12 -288 0
-10 -292 0
-11 -293 0
-12 -294 0
-13 -157 0
-14 -158 0
-15 -159 0
-13 -235 0
-14 -236 0
-15 -237 0
-13 -250 0
-14 -251 0
-15 -252 0
-13 -268 0
-14 -269 0
-15 -270 0
-13 -283 0
-14 -284 0
-15 -285 0
-16 -31 0
-17 -32 0
-18 -33 0
-16 -76 0
-17 -77 0
-18 -78 0
-16 -238 0
-17 -239 0
-18 -240 0
-16 -241 0
-17 -242 0
-18 -243 0
-16 -271 0
-17 -272 0
-18 -273 0
-19 -157 0
-20 -158 0
-21 -159 0
-19 -169 0
-20 -170 0
-21 -171 0
-19 -226 0
-20 -227 0
-21 -228 0
-19 -280 0
-20 -281 0
-21 -282 0
-22 -37 0
-23 -38 0
-24 -39 0
-22 -118 0
-23 -119 0
-24 -120 0
-22 -232 0
-23 -233 0
-24 -234 0
-22 -265 0
-23 -266 0
-24 -267 0
-22 -274 0
-23 -275 0
-24 -276 0
-25 -31 0
-26 -32 0
-27 -33 0
-25 -115 0
-26 -116 0
-27 -117 0
-25 -175 0
-26 -176 0
-27 -177 0
-25 -268 0
-26 -269 0
-27 -270 0
-25 -280 0
-26 -281 0
-27 -282 0
-28 -109 0
-29 -110 0
-30 -111 0
-28 -115 0
-29 -116 0
-30 -117 0
-28 -118 0
-29 -119 0
-30 -120 0
-28 -169 0
-29 -170 0
-30 -171 0
-28 -202 0
-29 -203 0
-30 -204 0
-31 -61 0
-32 -62 0
-33 -63 0
-31 -127 0
-32 -128 0
-33 -129 0
-31 -283 0
-32 -284 0
-33 -285 0
-34 -115 0
-35 -116 0
-36 -117 0
-34 -163 0
-35 -164 0
-36 -165 0
-34 -205 0
-35 -206 0
-36 -207 0
-34 -229 0
-35 -230 0
-36 -231 0
-34 -250 0
-35 -251 0
-36 -252 0
-37 -67 0
-38 -68 0
-39 -69 0
-37 -154 0
-38 -155 0
-39 -156 0
-37 -181 0
-38 -182 0
-39 -183 0
-37 -226 0
-38 -227 0
-39 -228 0
-40 -139 0
-41 -140 0
-42 -141 0
-40 -178 0
-41 -179 0
-42 -180 0
-40 -259 0
-41 -260 0
-42 -261 0
-40 -292 0
-41 -293 0
-42 -294 0
-43 -46 0
-44 -47 0
-45 -48 0
-43 -55 0
-44 -56 0
-45 -57 0
-43 -235 0
-44 -236 0
-45 -237 0
-43 -256 0
-44 -257 0
-45 -258 0
-43 -274 0
-44 -275 0
-45 -276 0
-46 -142 0
-47 -143 0
-48 -144 0
-46 -238 0
-47 -239 0
-48 -240 0
-49 -64 0
-50 -65 0
-51 -66 0
-49 -139 0
-50 -140 0
-51 -141 0
-49 -184 0
-50 -185 0
-51 -186 0
-49 -253 0
-50 -254 0
-51 -255 0
-49 -259 0
-50 -260 0
-51 -261 0
-52 -61 0
-53 -62 0
-54 -63 0
-52 -124 0
-53 -125 0
-54 -126 0
-52 -154 0
-53 -155 0
-54 -156 0
-52 -166 0
-53 -167 0
-54 -168 0
-52 -205 0
-53 -206 0
-54 -207 0
-55 -58 0
-56 -59 0
-57 -60 0
-55 -130 0
-56 -131 0
-57 -132 0
-55 -142 0
-56 -143 0
-57 -144 0
-55 -283 0
-56 -284 0
-57 -285 0
-58 -151 0
-59 -152 0
-60 -153 0
-58 -166 0
-59 -167 0
-60 -168 0
-58 -229 0
-59 -230 0
-60 -231 0
-58 -265 0
-59 -266 0
-60 -267 0
-61 -100 0
-62 -101 0
-63 -102 0
-61 -172 0
-62 -173 0
-63 -174 0
-61 -262 0
-62 -263 0
-63 -264 0
-64 -118 0
-65 -119 0
-66 -120 0
-64 -181 0
-65 -182 0
-66 -183 0
-64 -250 0
-65 -251 0
-66 -252 0
-64 -265 0
-65 -266 0
-66 -267 0
-67 -76 0
-68 -77 0
-69 -78 0
-67 -142 0
-68 -143 0
-69 -144 0
-67 -211 0
-68 -212 0
-69 -213 0
-67 -283 0
-68 -284 0
-69 -285 0
-70 -154 0
-71 -155 0
-72 -156 0
-70 -187 0
-71 -188 0
-72 -189 0
-70 -232 0
-71 -233 0
-72 -234 0
-70 -241 0
-71 -242 0
-72 -243 0
-70 -280 0
-71 -281 0
-72 -282 0
-73 -136 0
-74 -137 0
-75 -138 0
-73 -148 0
-74 -149 0
-75 -150 0
-73 -205 0
-74 -206 0
-75 -207 0
-73 -220 0
-74 -221 0
-75 -222 0
-73 -277 0
-74 -278 0
-75 -279 0
-76 -136 0
-77 -137 0
-78 -138 0
-76 -190 0
-77 -191 0
-78 -192 0
-76 -208 0
-77 -209 0
-78 -210 0
-79 -166 0
-80 -167 0
-81 -168 0
-79 -175 0
-80 -176 0
-81 -177 0
-79 -181 0
-80 -182 0
-81 -183 0
-79 -244 0
-80 -245 0
-81 -246 0
-79 -277 0
-80 -278 0
-81 -279 0
-82 -112 0
-83 -113 0
-84 -114 0
-82 -184 0
-83 -185 0
-84 -186 0
-82 -190 0
-83 -191 0
-84 -192 0
-82 -223 0
-83 -224 0
-84 -225 0
-82 -259 0
-83 -260 0
-84 -261 0
-85 -169 0
-86 -170 0
-87 -171 0
-85 -175 0
-86 -176 0
-87 -177 0
-85 -193 0
-86 -194 0
-87 -195 0
-85 -214 0
-86 -215 0
-87 -216 0
-85 -247 0
-86 -248 0
-87 -249 0
-88 -100 0
-89 -101 0
-90 -102 0
-88 -109 0
-89 -110 0
-90 -111 0
-88 -172 0
-89 -173 0
-90 -174 0
-88 -211 0
-89 -212 0
-90 -213 0
-88 -226 0
-89 -227 0
-90 -228 0
-91 -112 0
-92 -113 0
-93 -114 0
-91 -127 0
-92 -128 0
-93 -129 0
-91 -163 0
-92 -164 0
-93 -165 0
-91 -193 0
-92 -194 0
-93 -195 0
-94 -103 0
-95 -104 0
-96 -105 0
-94 -109 0
-95 -110 0
-96 -111 0
-94 -121 0
-95 -122 0
-96 -123 0
-94 -151 0
-95 -152 0
-96 -153 0
-94 -193 0
-95 -194 0
-96 -195 0
-97 -103 0
-98 -104 0
-99 -105 0
-97 -124 0
-98 -125 0
-99 -126 0
-97 -196 0
-98 -197 0
-99 -198 0
-97 -268 0
-98 -269 0
-99 -270 0
-97 -271 0
-98 -272 0
-99 -273 0
-100 -226 0
-101 -227 0
-102 -228 0
-100 -253 0
-101 -254 0
-102 -255 0
-100 -262 0
-101 -263 0
-102 -264 0
-103 -193 0
-104 -194 0
-105 -195 0
-103 -208 0
-104 -209 0
-105 -210 0
-103 -247 0
-104 -248 0
-105 -249 0
-106 -136 0
-107 -137 0
-108 -138 0
-106 -139 0
-107 -140 0
-108 -141 0
-106 -184 0
-107 -185 0
-108 -186 0
-106 -226 0
-107 -227 0
-108 -228 0
-106 -262 0
-107 -263 0
-108 -264 0
-109 -127 0
-110 -128 0
-111 -129 0
-109 -172 0
-110 -173 0
-111 -174 0
-112 -118 0
-113 -119 0
-114 -120 0
-112 -244 0
-113 -245 0
-114 -246 0
-112 -262 0
-113 -263 0
-114 -264 0
-115 -121 0
-116 -122 0
-117 -123 0
-115 -217 0
-116 -218 0
-117 -219 0
-118 -253 0
-119 -254 0
-120 -255 0
-121 -166 0
-122 -167 0
-123 -168 0
-121 -175 0
-122 -176 0
-123 -177 0
-121 -220 0
-122 -221 0
-123 -222 0
-124 -148 0
-125 -149 0
-126 -150 0
-124 -178 0
-125 -179 0
-126 -180 0
-124 -274 0
-125 -275 0
-126 -276 0
-127 -172 0
-128 -173 0
-129 -174 0
-127 -271 0
-128 -272 0
-129 -273 0
-130 -208 0
-131 -209 0
-132 -210 0
-130 -217 0
-131 -218 0
-132 -219 0
-130 -247 0
-131 -248 0
-132 -249 0
-133 -145 0
-134 -146 0
-135 -147 0
-133 -187 0
-134 -188 0
-135 -189 0
-133 -190 0
-134 -191 0
-135 -192 0
-133 -199 0
-134 -200 0
-135 -201 0
-136 -172 0
-137 -173 0
-138 -174 0
-136 -277 0
-137 -278 0
-138 -279 0
-139 -220 0
-140 -221 0
-141 -222 0
-139 -223 0
-140 -224 0
-141 -225 0
-142 -187 0
-143 -188 0
-144 -189 0
-142 -229 0
-143 -230 0
-144 -231 0
-145 -178 0
-146 -179 0
-147 -180 0
-145 -187 0
-146 -188 0
-147 -189 0
-145 -217 0
-146 -218 0
-147 -219 0
-148 -220 0
-149 -221 0
-150 -222 0
-148 -256 0
-149 -257 0
-150 -258 0
-148 -277 0
-149 -278 0
-150 -279 0
-151 -157 0
-152 -158 0
-153 -159 0
-151 -223 0
-152 -224 0
-153 -225 0
-151 -241 0
-152 -242 0
-153 -243 0
-154 -217 0
-155 -218 0
-156 -219 0
-154 -256 0
-155 -257 0
-156 -258 0
-157 -235 0
-158 -236 0
-159 -237 0
-157 -250 0
-158 -251 0
-159 -252 0
-160 -193 0
-161 -194 0
-162 -195 0
-160 -199 0
-161 -200 0
-162 -201 0
-160 -202 0
-161 -203 0
-162 -204 0
-160 -217 0
-161 -218 0
-162 -219 0
-160 -265 0
-161 -266 0
-162 -267 0
-163 -235 0
-164 -236 0
-165 -237 0
-163 -286 0
-164 -287 0
-165 -288 0
-166 -253 0
-167 -254 0
-168 -255 0
-169 -199 0
-170 -200 0
-171 -201 0
-169 -241 0
-170 -242 0
-171 -243 0
-175 -268 0
-176 -269 0
-177 -270 0
-178 -208 0
-179 -209 0
-180 -210 0
-178 -277 0
-179 -278 0
-180 -279 0
-181 -202 0
-182 -203 0
-183 -204 0
-181 -229 0
-182 -230 0
-183 -231 0
-184 -199 0
-185 -200 0
-186 -201 0
-184 -289 0
-185 -290 0
-186 -291 0
-187 -205 0
-188 -206 0
-189 -207 0
-190 -229 0
-191 -230 0
-192 -231 0
-196 -202 0
-197 -203 0
-198 -204 0
-196 -247 0
-197 -248 0
-198 -249 0
-196 -271 0
-197 -272 0
-198 -273 0
-196 -286 0
-197 -287 0
-198 -288 0
-199 -274 0
-200 -275 0
-201 -276 0
-202 -211 0
-203 -212 0
-204 -213 0
-205 -286 0
-206 -287 0
-207 -288 0
-208 -241 0
-209 -242 0
-210 -243 0
-211 -214 0
-212 -215 0
-213 -216 0
-211 -244 0
-212 -245 0
-213 -246 0
-214 -238 0
-215 -239 0
-216 -240 0
-214 -280 0
-215 -281 0
-216 -282 0
-214 -289 0
-215 -290 0
-216 -291 0
-220 -256 0
-221 -257 0
-222 -258 0
-223 -238 0
-224 -239 0
-225 -240 0
-232 -256 0
-233 -257 0
-234 -258 0
-232 -262 0
-233 -263 0
-234 -264 0
-235 -280 0
-236 -281 0
-237 -282 0
-238 -289 0
-239 -290 0
-240 -291 0
-244 -292 0
-245 -293 0
-246 -294 0
-247 -250 0
-248 -251 0
-249 -252 0
-259 -268 0
-260 -269 0
-261 -270 0
-259 -292 0
-260 -293 0
-261 -294 0
-265 -289 0
-266 -290 0
-267 -291 0
-271 -292 0
-272 -293 0
-273 -294 0
-274 -283 0
-275 -284 0
-276 -285 0
-286 -289 0
-287 -290 0
-288 -291 0
